SDVRP instances/p11/p11_1090_tsplib0.txt
NAME: .\SDVRP instances\p11\p11_1090
BEST_KNOWN: 0
COMMENT: 0
DIMENSION: 121
CAPACITY: 200
EDGE_WEIGHT_FORMAT: FUNCTION
EDGE_WEIGHT_TYPE: EXACT_2D
NODE_COORD_SECTION
1 0 0
2 15 -44
3 15 -42
4 21 -40
5 22 -40
6 21 -38
7 22 -36
8 24 -36
9 36 -36
10 25 -38
11 24 -39
12 25 -40
13 37 -39
14 30 -40
15 29 -42
16 26 -42
17 63 -39
18 63 -37
19 14 -9
20 66 -39
21 66 -35
22 66 -32
23 68 -42
24 68 -36
25 69 -42
26 69 -40
27 69 -34
28 72 -42
29 72 -38
30 80 -30
31 74 -42
32 74 -40
33 74 -36
34 75 -44
35 77 -40
36 75 -37
37 77 -38
38 76 -4
39 76 -1
40 76 1
41 75 10
42 79 -2
43 79 1
44 79 7
45 82 -3
46 82 7
47 84 -3
48 84 -1
49 84 3
50 86 -3
51 89 1
52 89 5
53 73 35
54 73 38
55 75 36
56 75 40
57 75 44
58 77 35
59 77 41
60 80 32
61 80 43
62 83 37
63 83 39
64 83 44
65 84 41
66 85 35
67 89 44
68 27 38
69 40 35
70 25 40
71 25 42
72 34 41
73 36 44
74 36 38
75 36 42
76 36 44
77 38 38
78 40 40
79 40 43
80 44 41
81 44 45
82 0 -10
83 0 -5
84 8 -15
85 7 -10
86 6 -7
87 4 -5
88 5 -3
89 1 -3
90 8 -5
91 11 -6
92 10 -5
93 8 -4
94 10 -1
95 12 -1
96 6 0
97 10 0
98 15 0
99 20 10
100 10 5
101 12 6
102 8 4
103 6 3
104 10 10
105 8 8
106 4 5
107 5 6
108 6 9
109 18 -12
110 23 -7
111 20 5
112 3 -5
113 5 -9
114 8 -14
115 15 -8
116 20 1
117 15 7
118 6 -12
119 15 -10
120 -5 -5
121 -5 5
DEMAND_SECTION
1 0
2 156
3 83
4 56
5 109
6 165
7 157
8 99
9 37
10 53
11 25
12 149
13 83
14 94
15 103
16 132
17 67
18 33
19 101
20 156
21 107
22 36
23 121
24 124
25 113
26 147
27 137
28 25
29 144
30 44
31 36
32 156
33 148
34 152
35 54
36 155
37 96
38 144
39 97
40 97
41 153
42 50
43 30
44 121
45 126
46 160
47 65
48 99
49 89
50 155
51 119
52 126
53 125
54 32
55 167
56 139
57 136
58 69
59 132
60 84
61 74
62 161
63 62
64 70
65 67
66 76
67 96
68 156
69 34
70 177
71 158
72 171
73 163
74 154
75 179
76 28
77 72
78 113
79 135
80 111
81 148
82 125
83 65
84 129
85 122
86 177
87 144
88 177
89 149
90 156
91 39
92 150
93 112
94 49
95 170
96 129
97 146
98 143
99 88
100 142
101 36
102 127
103 147
104 140
105 172
106 90
107 55
108 34
109 109
110 70
111 167
112 167
113 126
114 22
115 69
116 130
117 82
118 79
119 153
120 142
121 168
DEPOT_SECTION
1
-1
EOF
