SDVRP instances/p11/p11_1090_tsplib0.sol
120 -1 -2 4 -3 15 -5 113 -6 -7 9 -8 25 -10 11 -12 24 -13 14 -16 22 -17 19 -18 36 -20 114 -21 32 -23 109 -26 90 -27 31 -28 34 -29 35 -30 33 -37 41 -38 39 -40 -42 49 -43 57 -44 46 -45 -47 48 -50 65 -51 63 -52 60 -53 55 -54 -56 62 -58 64 -59 66 -61 100 -67 107 -68 80 -69 -70 -71 -72 75 -73 -74 -76 77 -78 106 -79 98 -81 82 -83 -84 -85 -86 -87 -88 -89 -91 -92 -93 97 -94 -95 -96 -99 -101 -102 -103 -104 -105 -108 -110 -111 -112 -115 -116 -117 -118 -119 -120 0 





OBJ=
7804.213
BEST_KNOWN=
0.000